
  12    4
  10   10   10   10

   0   0   0   0   0   2 2 3 
   5  10  10  10  10   3 10 6 4 
   1  10  10  10  10   3 10 6 5 
   4  10  10  10  10   2 7 5 
   7  10  10  10  10   2 9 8 
   7  10  10  10  10   2 9 8 
  10  10  10  10  10   2 9 8 
   9  10  10  10  10   1 11 
   1  10  10  10  10   1 11 
   6  10  10  10  10   1 11 
   1  10  10  10  10   1 12
   0   0   0   0   0   0 
